nbCarTypes = 6;
nbOptions = 4;
nbSlots = 1112;
demand = [232, 222, 132, 122, 202, 202];
option = [
           [ 1, 0, 1, 0],
           [ 0, 0, 1, 1],
           [ 0, 1, 0, 0],
           [ 1, 1, 0, 0],
           [ 0, 0, 1, 0],
           [ 0, 0, 0, 1]
        ]; 
maxSequence = [2,2,2,2];
